n = 11;
k = 2;
maxsize = 11;
nML = 2;
nCL = 2;
deg = [3, 4, 1, 2, 3, 3, 4, 4, 4, 3, 3];
ML = array2d(1..2, 1..2, [5, 3, 10, 8]);
CL = array2d(1..2, 1..2, [9, 1, 4, 7]);
A = array2d(1..11, 1..11, [ 0, 1, 0, 0, 0, 1, 0, 0, 0, 0, 1, 1, 0, 0, 0, 0, 0, 1, 1, 1, 0, 0, 0, 0, 0, 0, 0, 0, 0, 0, 1, 0, 0, 0, 0, 0, 0, 0, 1, 0, 1, 0, 0, 0, 0, 0, 0, 0, 0, 0, 0, 1, 1, 1, 0, 1, 0, 0, 1, 0, 0, 1, 0, 0, 0, 0, 0, 1, 0, 0, 0, 1, 0, 1, 0, 0, 1, 0, 1, 0, 1, 1, 0, 1, 0, 0, 0, 0, 0, 1, 1, 0, 1, 0, 0, 0, 0, 1, 0, 0, 0, 0, 0, 1, 0, 0, 0, 1, 0, 1, 1, 0, 0, 0, 0, 0, 1, 0, 0, 1, 0 ]);
W = array2d(1..11, 1..11, [ 10, 2, 1, -6, -8, 6, -3, -6, -5, 7, 2, -6, -8, 6, -3, 1, 3, 2, 0, 10, -6, 6, 9, 0, 9, 1, -1, 1, -8, 9, 8, -6, -8, -2, 8, -1, 8, -7, -9, 5, 0, -3, -5, -9, -6, -8, -2, 6, -10, 2, -3, -3, -8, -10, 5, 5, 6, 6, 8, -7, -6, -5, -1, 0, 0, -2, -8, -4, 6, 9, 8, 2, 0, 5, 0, 2, 8, -7, 0, 2, 1, -5, -2, -5, -4, -3, 1, 7, 4, -2, 0, 9, -5, 2, -10, -7, 2, -9, 0, -7, 8, 0, 2, -3, 10, 6, 0, -8, -8, 6, 0, 6, 2, 2, 3, 5, 2, 8, 7, 2, 6 ]);